c
p cnf 35 59
11 -34 0
14 -22 0
-13 26 0
8 23 0
-25 -4 0
32 1 0
32 9 0
4 20 0
-1 -4 0
-26 -2 0
16 -30 0
-17 -6 0
-16 21 0
34 -16 0
13 -34 0
10 26 0
27 -32 0
20 13 0
33 -20 0
-15 -35 0
-19 -22 0
-23 -4 0
17 -24 0
34 -22 0
-24 1 0
-25 8 0
-2 30 0
11 19 0
25 -16 0
18 9 0
1 -26 0
-5 -12 0
-17 -16 0
7 -3 0
28 12 0
-35 12 0
-2 -1 0
-15 -10 0
-21 -4 0
23 25 0
-7 30 0
-14 5 0
27 15 0
-20 4 0
15 13 0
13 33 0
15 -33 0
18 16 0
-17 31 0
17 -29 0
-35 6 0
-7 -1 0
4 1 0
26 11 0
-4 31 0
21 -28 0
-29 -32 0
-15 -18 0
-8 -2 0
